
(set-logic ALL) 

(declare-datatype MyList ((Nil) (Cons (head Real) (tail MyList)) )) 
(declare-fun l0 () MyList) 
(declare-fun l1 () MyList) 
(declare-fun l2 () MyList) 
(declare-fun l3 () MyList) 
(declare-fun i0 () Real) 
(declare-fun i1 () Real) 
(assert (and (= l2 Nil) (= l0 Nil)) )
(assert (and (= l0 Nil) (= l2 Nil)) )
(assert (or (= l1 Nil) (= l0 l2) (is-Nil Nil) (is-Nil Nil)) )
(assert (is-Cons l2) )
(assert (and (= l0 Nil) (= l0 Nil) (= l2 l1) (= l3 l3)) )
(assert (= l2 l1) )
(assert (not (is-Cons Nil)) )
(assert (not (= l2 l2)) )
(check-sat)
